NAME: random86
TYPE: TSP
DIMENSION: 86
EDGE_WEIGHT_TYPE: EXPLICIT
EDGE_WEIGHT_FORMAT: FULL_MATRIX
EDGE_WEIGHT_SECTION
0 635 635 635 635 635 635 635 11 635 635 635 635 635 635 635 7 635 635 635 635 635 635 635 635 635 635 635 635 635 11 635 635 635 635 635 635 8 635 635 635 635 635 635 635 635 635 635 635 635 635 635 635 635 635 635 635 635 635 635 635 635 635 635 635 635 635 635 635 635 635 635 635 635 3 635 635 635 635 635 635 635 635 635 635 635
635 0 635 635 635 635 635 635 635 635 635 635 635 2 635 635 635 635 635 635 635 635 635 635 635 635 635 635 635 635 635 635 635 635 635 635 635 635 635 635 635 635 635 635 635 635 635 635 635 635 635 635 635 635 9 635 635 635 635 635 635 635 635 635 23 635 635 635 635 635 5 2 635 3 635 635 635 635 635 635 635 635 635 635 635 635
635 635 0 635 635 635 635 635 635 635 6 635 635 10 635 635 635 635 635 635 635 635 635 19 635 635 635 635 635 635 635 635 635 635 635 635 635 635 635 635 25 635 635 635 635 635 635 635 635 635 635 635 635 635 13 635 635 635 635 635 635 635 635 635 635 635 635 635 635 635 8 11 635 635 635 635 635 635 635 635 635 635 635 635 10 635
635 635 635 0 635 635 635 635 635 635 635 635 635 635 635 635 635 635 635 635 635 635 635 635 635 635 635 635 635 635 635 635 9 635 635 635 635 635 635 635 635 635 8 8 635 635 635 635 635 635 635 635 635 635 635 635 635 635 635 635 635 635 635 635 635 635 635 635 635 635 635 635 635 635 635 10 635 635 635 635 12 635 635 635 635 635
635 635 635 635 0 635 635 635 635 635 635 635 635 635 635 635 635 635 635 635 635 9 18 635 635 635 635 635 635 635 635 635 635 635 5 635 635 635 20 635 635 635 635 635 635 635 18 635 635 635 635 635 635 635 635 635 635 635 635 14 635 635 635 635 635 635 635 635 635 10 635 635 635 635 635 635 635 635 635 635 635 635 635 635 635 635
635 635 635 635 635 0 635 635 635 635 635 635 635 635 635 635 635 635 635 635 635 635 635 635 635 635 635 635 635 635 635 635 635 635 635 635 635 635 635 635 635 635 635 635 635 635 635 635 635 635 635 635 635 635 635 635 635 635 635 635 635 635 635 635 26 635 635 635 635 635 635 11 635 10 635 635 635 635 4 635 635 635 635 6 635 635
635 635 635 635 635 635 0 635 635 635 635 635 635 635 635 635 635 635 635 635 635 635 635 635 4 635 635 635 635 635 635 635 635 635 635 635 635 635 635 635 635 635 635 635 635 635 635 635 635 635 635 635 635 12 635 635 635 635 635 635 635 635 635 635 635 635 635 635 635 635 635 635 8 635 635 635 635 20 635 635 635 635 635 635 635 635
635 635 635 635 635 635 635 0 635 635 635 635 635 635 22 635 635 635 635 16 635 635 635 635 635 635 3 635 635 635 635 635 635 635 635 635 635 635 635 635 635 635 635 635 635 635 635 635 635 635 635 635 635 635 635 635 635 635 635 635 635 635 635 635 635 635 635 635 3 635 635 635 635 635 635 635 635 635 635 635 635 635 635 635 635 635
11 635 635 635 635 635 635 635 0 635 635 635 635 635 32 635 11 18 635 635 635 635 635 635 635 635 635 635 14 635 635 635 635 635 635 635 635 635 635 635 635 20 635 635 635 635 635 635 635 635 635 635 635 635 635 635 635 635 635 635 635 635 635 635 635 635 635 19 635 635 635 635 635 635 10 635 635 635 635 635 635 635 635 635 635 635
635 635 635 635 635 635 635 635 635 0 635 635 635 635 635 635 635 635 635 635 635 635 635 635 635 635 635 635 635 635 635 635 635 7 635 635 635 635 635 635 635 635 635 635 635 635 635 635 635 635 635 635 635 635 635 635 12 635 635 635 635 635 635 635 635 635 635 635 635 635 635 635 635 635 635 635 635 635 12 7 635 635 635 13 635 635
635 635 6 635 635 635 635 635 635 635 0 635 635 635 635 6 635 635 635 635 635 635 635 635 635 635 635 5 635 635 635 635 635 635 635 635 635 635 635 635 635 635 635 635 635 635 635 635 635 635 635 635 635 635 635 635 635 635 635 635 635 635 635 635 635 635 635 635 635 635 635 14 635 635 635 635 635 635 635 635 635 635 635 13 6 635
635 635 635 635 635 635 635 635 635 635 635 0 635 635 635 635 635 635 635 635 635 635 4 635 635 635 635 635 635 635 635 635 635 635 635 635 9 635 635 635 635 635 635 635 635 635 3 635 635 635 635 635 635 635 635 635 635 635 4 635 635 635 635 635 635 635 4 635 635 635 635 635 635 635 635 635 635 635 635 635 635 635 635 635 635 635
635 635 635 635 635 635 635 635 635 635 635 635 0 635 635 20 635 635 635 635 635 635 635 635 635 635 635 635 635 635 635 635 635 635 635 635 635 635 635 635 635 635 635 635 635 635 635 12 635 635 635 635 15 635 635 635 635 19 635 635 635 635 635 635 635 635 635 635 635 635 635 635 635 635 635 11 11 635 635 635 8 17 635 635 635 635
635 2 10 635 635 635 635 635 635 635 635 635 635 0 635 635 635 635 635 635 635 635 635 635 635 635 635 635 635 635 635 635 635 635 635 635 635 635 635 635 635 635 635 635 635 635 635 635 635 635 635 635 635 635 635 635 635 635 635 635 635 635 635 635 635 635 635 635 635 635 3 3 635 635 635 635 635 635 635 635 635 635 635 635 635 635
635 635 635 635 635 635 635 22 32 635 635 635 635 635 0 635 635 30 635 23 635 635 635 635 635 635 635 635 635 635 635 635 635 635 635 635 635 635 635 635 635 47 635 635 635 635 635 635 635 635 635 635 635 635 635 635 635 635 635 635 55 635 635 635 635 635 635 635 24 635 635 635 635 635 635 635 635 635 635 635 635 635 16 635 635 635
635 635 635 635 635 635 635 635 635 635 6 635 20 635 635 0 635 635 635 635 635 635 635 635 635 635 635 2 635 635 635 635 635 17 635 635 635 635 635 635 635 635 635 635 635 635 635 635 635 635 635 635 635 635 635 635 20 2 635 635 635 635 635 635 635 635 635 635 635 635 635 635 635 635 635 635 635 635 635 635 635 22 635 15 635 635
7 635 635 635 635 635 635 635 11 635 635 635 635 635 635 635 0 635 635 635 635 635 635 635 635 635 635 635 635 635 9 635 635 635 635 635 635 635 635 635 635 10 635 635 635 635 635 635 635 635 635 10 635 635 635 635 635 635 635 635 635 635 635 635 635 635 635 635 635 635 635 635 635 635 635 635 635 635 635 635 635 635 635 635 635 635
635 635 635 635 635 635 635 635 18 635 635 635 635 635 30 635 635 0 635 635 635 635 635 635 635 635 635 635 635 635 635 635 635 635 635 635 635 635 635 635 635 635 11 635 635 635 635 635 635 635 635 635 635 635 635 635 635 635 635 635 635 635 635 635 635 635 635 9 635 635 635 635 635 635 635 635 635 635 635 635 635 635 22 635 635 635
635 635 635 635 635 635 635 635 635 635 635 635 635 635 635 635 635 635 0 635 635 635 635 635 635 635 635 635 635 37 635 635 635 635 635 68 635 635 635 635 635 635 635 635 635 635 635 635 635 635 635 635 635 635 635 28 635 635 635 635 635 635 635 635 635 635 635 635 635 635 635 635 21 635 635 635 635 5 635 635 635 635 635 635 635 635
635 635 635 635 635 635 635 16 635 635 635 635 635 635 23 635 635 635 635 0 635 635 635 635 635 15 16 635 635 635 635 635 635 635 635 635 13 635 10 635 635 635 635 635 635 635 635 635 635 635 635 635 635 635 635 635 635 635 635 635 635 635 635 635 635 635 8 635 635 635 635 635 635 635 635 635 635 635 635 635 635 635 13 635 635 635
635 635 635 635 635 635 635 635 635 635 635 635 635 635 635 635 635 635 635 635 0 635 635 635 635 635 635 635 635 635 635 635 635 635 635 635 635 635 635 635 635 635 635 635 635 635 635 635 635 635 635 635 3 635 635 635 635 635 635 635 635 635 16 635 635 635 635 635 635 635 635 635 635 635 635 635 635 635 635 635 635 2 635 635 635 635
635 635 635 635 9 635 635 635 635 635 635 635 635 635 635 635 635 635 635 635 635 0 635 635 635 635 635 635 635 635 635 635 635 635 635 28 635 635 635 635 635 635 635 635 635 635 20 635 635 635 635 635 635 635 635 635 635 635 21 635 635 635 635 635 635 635 635 635 635 3 635 635 635 635 635 635 635 635 635 635 635 635 635 635 635 635
635 635 635 635 18 635 635 635 635 635 635 4 635 635 635 635 635 635 635 635 635 635 0 635 635 635 635 635 635 635 635 635 635 635 635 635 635 635 6 635 635 635 635 635 635 635 4 635 635 635 635 635 635 635 635 635 635 635 635 635 635 635 635 635 635 635 4 635 635 635 635 635 635 635 635 635 635 635 635 635 635 635 635 635 635 635
635 635 19 635 635 635 635 635 635 635 635 635 635 635 635 635 635 635 635 635 635 635 635 0 635 635 635 635 635 635 635 635 635 635 635 635 635 635 635 6 12 635 635 635 14 635 635 635 635 635 635 635 635 635 635 635 635 635 635 635 635 635 635 635 635 635 635 635 635 635 635 635 635 635 635 635 18 635 635 635 635 635 635 635 16 635
635 635 635 635 635 635 4 635 635 635 635 635 635 635 635 635 635 635 635 635 635 635 635 635 0 635 635 635 635 24 635 635 635 635 635 635 635 635 635 635 635 635 635 635 635 635 635 635 635 635 635 635 20 13 635 635 635 635 635 635 635 635 16 635 635 18 635 635 635 635 635 635 635 635 635 635 635 22 635 635 635 635 635 635 635 635
635 635 635 635 635 635 635 635 635 635 635 635 635 635 635 635 635 635 635 15 635 635 635 635 635 0 635 635 635 635 635 635 5 635 635 635 635 635 12 635 635 635 635 10 635 635 635 635 635 635 635 635 635 635 635 635 635 635 635 635 635 635 635 635 635 635 635 635 635 635 635 635 635 635 635 635 635 635 635 635 635 635 9 635 635 635
635 635 635 635 635 635 635 3 635 635 635 635 635 635 635 635 635 635 635 16 635 635 635 635 635 635 0 635 635 635 635 1 635 635 635 635 13 635 635 635 635 635 635 635 635 635 635 635 635 635 6 635 635 635 635 635 635 635 635 635 635 635 635 635 635 635 635 635 1 635 635 635 635 635 635 635 635 635 635 635 635 635 635 635 635 635
635 635 635 635 635 635 635 635 635 635 5 635 635 635 635 2 635 635 635 635 635 635 635 635 635 635 635 0 635 635 635 635 635 635 635 635 635 635 635 635 635 635 635 635 635 635 635 635 635 635 635 635 635 635 635 635 635 2 635 635 635 635 635 635 635 635 635 635 635 635 635 635 635 635 635 635 635 635 635 635 635 635 635 635 3 635
635 635 635 635 635 635 635 635 14 635 635 635 635 635 635 635 635 635 635 635 635 635 635 635 635 635 635 635 0 635 635 635 635 635 635 635 635 1 635 16 635 635 635 635 635 635 635 635 635 635 635 635 635 635 635 635 635 635 635 635 635 635 635 635 635 635 635 17 635 635 635 635 635 635 5 635 635 635 635 635 635 635 635 635 635 635
635 635 635 635 635 635 635 635 635 635 635 635 635 635 635 635 635 635 37 635 635 635 635 635 24 635 635 635 635 0 635 635 635 635 635 635 635 635 635 635 635 635 635 635 635 635 635 635 635 635 635 635 635 635 635 635 635 635 635 635 635 635 11 635 64 635 635 635 635 635 635 635 635 635 635 635 635 32 635 22 635 635 635 635 635 635
11 635 635 635 635 635 635 635 635 635 635 635 635 635 635 635 9 635 635 635 635 635 635 635 635 635 635 635 635 635 0 635 635 635 635 635 635 16 635 635 635 635 635 635 635 635 635 635 635 8 635 6 635 635 635 635 635 635 635 635 635 635 635 23 635 635 635 635 635 635 635 635 635 635 635 635 635 635 635 635 635 635 635 635 635 635
635 635 635 635 635 635 635 635 635 635 635 635 635 635 635 635 635 635 635 635 635 635 635 635 635 635 1 635 635 635 635 0 635 635 635 635 635 635 635 635 635 635 635 635 635 635 635 635 635 635 5 635 635 635 635 635 635 635 635 635 635 635 635 635 635 635 635 635 1 635 635 635 635 635 635 635 635 635 635 635 635 635 635 635 635 635
635 635 635 9 635 635 635 635 635 635 635 635 635 635 635 635 635 635 635 635 635 635 635 635 635 5 635 635 635 635 635 635 0 635 635 635 635 635 635 635 635 635 9 8 635 635 635 635 635 635 635 635 635 635 635 635 635 635 635 635 635 635 635 635 635 635 635 635 635 635 635 635 635 635 635 635 635 635 635 635 635 635 13 635 635 635
635 635 635 635 635 635 635 635 635 7 635 635 635 635 635 17 635 635 635 635 635 635 635 635 635 635 635 635 635 635 635 635 635 0 635 635 635 635 635 635 635 635 635 635 635 635 635 635 635 635 635 635 635 635 635 635 8 635 635 635 635 635 635 635 635 635 635 635 635 635 635 635 635 635 635 635 635 635 635 635 635 635 635 11 635 635
635 635 635 635 5 635 635 635 635 635 635 635 635 635 635 635 635 635 635 635 635 635 635 635 635 635 635 635 635 635 635 635 635 635 0 635 635 635 20 635 635 635 635 635 635 7 635 635 635 635 635 635 635 15 635 635 635 635 635 15 635 4 635 635 635 635 635 635 635 635 635 635 635 635 635 635 635 635 635 635 635 635 635 635 635 635
635 635 635 635 635 635 635 635 635 635 635 635 635 635 635 635 635 635 68 635 635 28 635 635 635 635 635 635 635 635 635 635 635 635 635 0 10 635 635 635 635 635 635 635 635 635 635 635 9 635 635 635 635 635 635 40 635 635 13 635 635 635 635 635 635 635 635 635 635 30 635 635 635 635 635 635 635 635 635 635 635 635 635 635 635 635
635 635 635 635 635 635 635 635 635 635 635 9 635 635 635 635 635 635 635 13 635 635 635 635 635 635 13 635 635 635 635 635 635 635 635 10 0 635 635 635 635 635 635 635 635 635 635 635 11 635 13 635 635 635 635 635 635 635 9 635 635 635 635 635 635 635 11 635 635 635 635 635 635 635 635 635 635 635 635 635 635 635 635 635 635 635
8 635 635 635 635 635 635 635 635 635 635 635 635 635 635 635 635 635 635 635 635 635 635 635 635 635 635 635 1 635 16 635 635 635 635 635 635 0 635 16 635 635 635 635 11 635 635 635 635 635 635 635 635 635 635 635 635 635 635 635 635 635 635 17 635 635 635 635 635 635 635 635 635 635 6 635 635 635 635 635 635 635 635 635 635 635
635 635 635 635 20 635 635 635 635 635 635 635 635 635 635 635 635 635 635 10 635 635 6 635 635 12 635 635 635 635 635 635 635 635 20 635 635 635 0 635 635 635 635 14 635 19 635 635 635 635 635 635 635 635 635 635 635 635 635 635 635 635 635 635 635 635 6 635 635 635 635 635 635 635 635 635 635 635 635 635 635 635 635 635 635 635
635 635 635 635 635 635 635 635 635 635 635 635 635 635 635 635 635 635 635 635 635 635 635 6 635 635 635 635 16 635 635 635 635 635 635 635 635 16 635 0 635 635 635 635 13 635 635 635 635 635 635 635 635 635 635 635 635 635 635 635 635 635 635 635 635 635 635 12 635 635 635 635 635 635 635 635 18 635 635 635 635 635 635 635 635 635
635 635 25 635 635 635 635 635 635 635 635 635 635 635 635 635 635 635 635 635 635 635 635 12 635 635 635 635 635 635 635 635 635 635 635 635 635 635 635 635 0 635 635 635 6 635 635 635 635 635 635 635 635 635 25 635 635 635 635 635 635 635 635 8 635 635 635 635 635 635 635 635 635 635 635 635 635 635 635 635 635 635 635 635 635 635
635 635 635 635 635 635 635 635 20 635 635 635 635 635 47 635 10 635 635 635 635 635 635 635 635 635 635 635 635 635 635 635 635 635 635 635 635 635 635 635 635 0 635 635 635 635 635 635 635 635 635 3 635 635 635 635 635 635 635 635 8 635 635 635 635 635 635 635 635 635 635 635 635 635 635 635 635 635 635 635 635 635 635 635 635 635
635 635 635 8 635 635 635 635 635 635 635 635 635 635 635 635 635 11 635 635 635 635 635 635 635 635 635 635 635 635 635 635 9 635 635 635 635 635 635 635 635 635 0 635 635 635 635 635 635 635 635 635 635 635 635 635 635 635 635 635 635 635 635 635 635 635 635 16 635 635 635 635 635 635 635 635 635 635 635 635 14 635 19 635 635 635
635 635 635 8 635 635 635 635 635 635 635 635 635 635 635 635 635 635 635 635 635 635 635 635 635 10 635 635 635 635 635 635 8 635 635 635 635 635 14 635 635 635 635 0 635 12 635 635 635 635 635 635 635 635 635 635 635 635 635 635 635 635 635 635 635 635 635 635 635 635 635 635 635 635 635 13 635 635 635 635 635 635 635 635 635 14
635 635 635 635 635 635 635 635 635 635 635 635 635 635 635 635 635 635 635 635 635 635 635 14 635 635 635 635 635 635 635 635 635 635 635 635 635 11 635 13 6 635 635 635 0 635 635 635 635 635 635 635 635 635 635 635 635 635 635 635 635 635 635 8 635 635 635 635 635 635 635 635 635 635 635 635 635 635 635 635 635 635 635 635 635 635
635 635 635 635 635 635 635 635 635 635 635 635 635 635 635 635 635 635 635 635 635 635 635 635 635 635 635 635 635 635 635 635 635 635 7 635 635 635 19 635 635 635 635 12 635 0 635 635 635 635 635 635 635 635 635 635 635 635 635 635 635 4 635 635 635 635 635 635 635 635 635 635 635 635 635 635 635 635 635 635 635 635 635 635 635 8
635 635 635 635 18 635 635 635 635 635 635 3 635 635 635 635 635 635 635 635 635 20 4 635 635 635 635 635 635 635 635 635 635 635 635 635 635 635 635 635 635 635 635 635 635 635 0 635 635 635 635 635 635 635 635 635 635 635 3 635 635 635 635 635 635 635 635 635 635 635 635 635 635 635 635 635 635 635 635 635 635 635 635 635 635 635
635 635 635 635 635 635 635 635 635 635 635 635 12 635 635 635 635 635 635 635 635 635 635 635 635 635 635 635 635 635 635 635 635 635 635 635 635 635 635 635 635 635 635 635 635 635 635 0 635 635 635 635 14 635 635 635 635 635 635 635 635 635 635 635 635 7 635 635 635 635 635 635 635 635 635 8 635 635 635 635 635 635 635 635 635 6
635 635 635 635 635 635 635 635 635 635 635 635 635 635 635 635 635 635 635 635 635 635 635 635 635 635 635 635 635 635 635 635 635 635 635 9 11 635 635 635 635 635 635 635 635 635 635 635 0 635 11 635 635 635 635 635 635 635 635 635 635 635 635 635 635 635 635 635 635 635 635 635 635 635 635 635 635 635 635 635 635 635 635 635 635 635
635 635 635 635 635 635 635 635 635 635 635 635 635 635 635 635 635 635 635 635 635 635 635 635 635 635 635 635 635 635 8 635 635 635 635 635 635 635 635 635 635 635 635 635 635 635 635 635 635 0 635 8 635 635 635 635 635 635 635 635 8 635 635 26 80 635 635 635 635 635 635 635 635 635 635 635 635 635 635 635 635 635 635 635 635 635
635 635 635 635 635 635 635 635 635 635 635 635 635 635 635 635 635 635 635 635 635 635 635 635 635 635 6 635 635 635 635 5 635 635 635 635 13 635 635 635 635 635 635 635 635 635 635 635 11 635 0 635 635 635 635 635 635 635 635 635 635 635 635 635 635 635 635 635 6 635 635 635 635 635 635 635 635 635 635 635 635 635 635 635 635 635
635 635 635 635 635 635 635 635 635 635 635 635 635 635 635 635 10 635 635 635 635 635 635 635 635 635 635 635 635 635 6 635 635 635 635 635 635 635 635 635 635 3 635 635 635 635 635 635 635 8 635 0 635 635 635 635 635 635 635 635 7 635 635 635 635 635 635 635 635 635 635 635 635 635 635 635 635 635 635 635 635 635 635 635 635 635
635 635 635 635 635 635 635 635 635 635 635 635 15 635 635 635 635 635 635 635 3 635 635 635 20 635 635 635 635 635 635 635 635 635 635 635 635 635 635 635 635 635 635 635 635 635 635 14 635 635 635 635 0 635 635 635 635 635 635 635 635 635 18 635 635 14 635 635 635 635 635 635 635 635 635 635 635 635 635 635 635 4 635 635 635 635
635 635 635 635 635 635 12 635 635 635 635 635 635 635 635 635 635 635 635 635 635 635 635 635 13 635 635 635 635 635 635 635 635 635 15 635 635 635 635 635 635 635 635 635 635 635 635 635 635 635 635 635 635 0 635 635 635 635 635 12 635 14 635 635 635 10 635 635 635 635 635 635 11 635 635 635 635 635 635 635 635 635 635 635 635 635
635 9 13 635 635 635 635 635 635 635 635 635 635 635 635 635 635 635 635 635 635 635 635 635 635 635 635 635 635 635 635 635 635 635 635 635 635 635 635 635 25 635 635 635 635 635 635 635 635 635 635 635 635 635 0 635 635 635 635 635 635 635 635 30 26 635 635 635 635 635 7 635 635 635 635 635 635 635 635 635 635 635 635 635 635 635
635 635 635 635 635 635 635 635 635 635 635 635 635 635 635 635 635 635 28 635 635 635 635 635 635 635 635 635 635 635 635 635 635 635 635 40 635 635 635 635 635 635 635 635 635 635 635 635 635 635 635 635 635 635 635 0 635 635 635 6 635 635 635 635 635 635 635 635 635 10 635 635 14 635 635 635 635 635 635 635 635 635 635 635 635 635
635 635 635 635 635 635 635 635 635 12 635 635 635 635 635 20 635 635 635 635 635 635 635 635 635 635 635 635 635 635 635 635 635 8 635 635 635 635 635 635 635 635 635 635 635 635 635 635 635 635 635 635 635 635 635 635 0 635 635 635 635 635 16 635 635 635 635 635 635 635 635 635 635 635 635 635 635 635 635 16 635 9 635 635 635 635
635 635 635 635 635 635 635 635 635 635 635 635 19 635 635 2 635 635 635 635 635 635 635 635 635 635 635 2 635 635 635 635 635 635 635 635 635 635 635 635 635 635 635 635 635 635 635 635 635 635 635 635 635 635 635 635 635 0 635 635 635 635 635 635 635 635 635 635 635 635 635 635 635 635 635 635 15 635 635 635 635 635 635 635 4 635
635 635 635 635 635 635 635 635 635 635 635 4 635 635 635 635 635 635 635 635 635 21 635 635 635 635 635 635 635 635 635 635 635 635 635 13 9 635 635 635 635 635 635 635 635 635 3 635 635 635 635 635 635 635 635 635 635 635 0 635 635 635 635 635 635 635 635 635 635 635 635 635 635 635 635 635 635 635 635 635 635 635 635 635 635 635
635 635 635 635 14 635 635 635 635 635 635 635 635 635 635 635 635 635 635 635 635 635 635 635 635 635 635 635 635 635 635 635 635 635 15 635 635 635 635 635 635 635 635 635 635 635 635 635 635 635 635 635 635 12 635 6 635 635 635 0 635 635 635 635 635 635 635 635 635 12 635 635 11 635 635 635 635 635 635 635 635 635 635 635 635 635
635 635 635 635 635 635 635 635 635 635 635 635 635 635 55 635 635 635 635 635 635 635 635 635 635 635 635 635 635 635 635 635 635 635 635 635 635 635 635 635 635 8 635 635 635 635 635 635 635 8 635 7 635 635 635 635 635 635 635 635 0 635 635 635 635 635 635 635 635 635 635 635 635 635 635 635 635 635 635 635 635 635 635 635 635 635
635 635 635 635 635 635 635 635 635 635 635 635 635 635 635 635 635 635 635 635 635 635 635 635 635 635 635 635 635 635 635 635 635 635 4 635 635 635 635 635 635 635 635 635 635 4 635 635 635 635 635 635 635 14 635 635 635 635 635 635 635 0 635 635 635 14 635 635 635 635 635 635 635 635 635 635 635 635 635 635 635 635 635 635 635 10
635 635 635 635 635 635 635 635 635 635 635 635 635 635 635 635 635 635 635 635 16 635 635 635 16 635 635 635 635 11 635 635 635 635 635 635 635 635 635 635 635 635 635 635 635 635 635 635 635 635 635 635 18 635 635 635 16 635 635 635 635 635 0 635 635 635 635 635 635 635 635 635 635 635 635 635 635 635 635 23 635 16 635 635 635 635
635 635 635 635 635 635 635 635 635 635 635 635 635 635 635 635 635 635 635 635 635 635 635 635 635 635 635 635 635 635 23 635 635 635 635 635 635 17 635 635 8 635 635 635 8 635 635 635 635 26 635 635 635 635 30 635 635 635 635 635 635 635 635 0 54 635 635 635 635 635 635 635 635 635 635 635 635 635 635 635 635 635 635 635 635 635
635 23 635 635 635 26 635 635 635 635 635 635 635 635 635 635 635 635 635 635 635 635 635 635 635 635 635 635 635 64 635 635 635 635 635 635 635 635 635 635 635 635 635 635 635 635 635 635 635 80 635 635 635 635 26 635 635 635 635 635 635 635 635 54 0 635 635 635 635 635 635 635 635 22 635 635 635 635 29 41 635 635 635 635 635 635
635 635 635 635 635 635 635 635 635 635 635 635 635 635 635 635 635 635 635 635 635 635 635 635 18 635 635 635 635 635 635 635 635 635 635 635 635 635 635 635 635 635 635 635 635 635 635 7 635 635 635 635 14 10 635 635 635 635 635 635 635 14 635 635 635 0 635 635 635 635 635 635 635 635 635 635 635 635 635 635 635 635 635 635 635 10
635 635 635 635 635 635 635 635 635 635 635 4 635 635 635 635 635 635 635 8 635 635 4 635 635 635 635 635 635 635 635 635 635 635 635 635 11 635 6 635 635 635 635 635 635 635 635 635 635 635 635 635 635 635 635 635 635 635 635 635 635 635 635 635 635 635 0 635 635 635 635 635 635 635 635 635 635 635 635 635 635 635 635 635 635 635
635 635 635 635 635 635 635 635 19 635 635 635 635 635 635 635 635 9 635 635 635 635 635 635 635 635 635 635 17 635 635 635 635 635 635 635 635 635 635 12 635 635 16 635 635 635 635 635 635 635 635 635 635 635 635 635 635 635 635 635 635 635 635 635 635 635 635 0 635 635 635 635 635 635 635 635 17 635 635 635 20 635 635 635 635 635
635 635 635 635 635 635 635 3 635 635 635 635 635 635 24 635 635 635 635 635 635 635 635 635 635 635 1 635 635 635 635 1 635 635 635 635 635 635 635 635 635 635 635 635 635 635 635 635 635 635 6 635 635 635 635 635 635 635 635 635 635 635 635 635 635 635 635 635 0 635 635 635 635 635 635 635 635 635 635 635 635 635 635 635 635 635
635 635 635 635 10 635 635 635 635 635 635 635 635 635 635 635 635 635 635 635 635 3 635 635 635 635 635 635 635 635 635 635 635 635 635 30 635 635 635 635 635 635 635 635 635 635 635 635 635 635 635 635 635 635 635 10 635 635 635 12 635 635 635 635 635 635 635 635 635 0 635 635 635 635 635 635 635 635 635 635 635 635 635 635 635 635
635 5 8 635 635 635 635 635 635 635 635 635 635 3 635 635 635 635 635 635 635 635 635 635 635 635 635 635 635 635 635 635 635 635 635 635 635 635 635 635 635 635 635 635 635 635 635 635 635 635 635 635 635 635 7 635 635 635 635 635 635 635 635 635 635 635 635 635 635 635 0 635 635 635 635 635 635 635 635 635 635 635 635 635 635 635
635 2 11 635 635 11 635 635 635 635 14 635 635 3 635 635 635 635 635 635 635 635 635 635 635 635 635 635 635 635 635 635 635 635 635 635 635 635 635 635 635 635 635 635 635 635 635 635 635 635 635 635 635 635 635 635 635 635 635 635 635 635 635 635 635 635 635 635 635 635 635 0 635 2 635 635 635 635 635 635 635 635 635 13 635 635
635 635 635 635 635 635 8 635 635 635 635 635 635 635 635 635 635 635 21 635 635 635 635 635 635 635 635 635 635 635 635 635 635 635 635 635 635 635 635 635 635 635 635 635 635 635 635 635 635 635 635 635 635 11 635 14 635 635 635 11 635 635 635 635 635 635 635 635 635 635 635 635 0 635 635 635 635 20 635 635 635 635 635 635 635 635
635 3 635 635 635 10 635 635 635 635 635 635 635 635 635 635 635 635 635 635 635 635 635 635 635 635 635 635 635 635 635 635 635 635 635 635 635 635 635 635 635 635 635 635 635 635 635 635 635 635 635 635 635 635 635 635 635 635 635 635 635 635 635 635 22 635 635 635 635 635 635 2 635 0 635 635 635 635 635 635 635 635 635 635 635 635
3 635 635 635 635 635 635 635 10 635 635 635 635 635 635 635 635 635 635 635 635 635 635 635 635 635 635 635 5 635 635 635 635 635 635 635 635 6 635 635 635 635 635 635 635 635 635 635 635 635 635 635 635 635 635 635 635 635 635 635 635 635 635 635 635 635 635 635 635 635 635 635 635 635 0 635 635 635 635 635 635 635 635 635 635 635
635 635 635 10 635 635 635 635 635 635 635 635 11 635 635 635 635 635 635 635 635 635 635 635 635 635 635 635 635 635 635 635 635 635 635 635 635 635 635 635 635 635 635 13 635 635 635 8 635 635 635 635 635 635 635 635 635 635 635 635 635 635 635 635 635 635 635 635 635 635 635 635 635 635 635 0 635 635 635 635 11 635 635 635 635 6
635 635 635 635 635 635 635 635 635 635 635 635 11 635 635 635 635 635 635 635 635 635 635 18 635 635 635 635 635 635 635 635 635 635 635 635 635 635 635 18 635 635 635 635 635 635 635 635 635 635 635 635 635 635 635 635 635 15 635 635 635 635 635 635 635 635 635 17 635 635 635 635 635 635 635 635 0 635 635 635 8 635 635 635 15 635
635 635 635 635 635 635 20 635 635 635 635 635 635 635 635 635 635 635 5 635 635 635 635 635 22 635 635 635 635 32 635 635 635 635 635 635 635 635 635 635 635 635 635 635 635 635 635 635 635 635 635 635 635 635 635 635 635 635 635 635 635 635 635 635 635 635 635 635 635 635 635 635 20 635 635 635 635 0 635 635 635 635 635 635 635 635
635 635 635 635 635 4 635 635 635 12 635 635 635 635 635 635 635 635 635 635 635 635 635 635 635 635 635 635 635 635 635 635 635 635 635 635 635 635 635 635 635 635 635 635 635 635 635 635 635 635 635 635 635 635 635 635 635 635 635 635 635 635 635 635 29 635 635 635 635 635 635 635 635 635 635 635 635 635 0 16 635 635 635 5 635 635
635 635 635 635 635 635 635 635 635 7 635 635 635 635 635 635 635 635 635 635 635 635 635 635 635 635 635 635 635 22 635 635 635 635 635 635 635 635 635 635 635 635 635 635 635 635 635 635 635 635 635 635 635 635 635 635 16 635 635 635 635 635 23 635 41 635 635 635 635 635 635 635 635 635 635 635 635 635 16 0 635 635 635 635 635 635
635 635 635 12 635 635 635 635 635 635 635 635 8 635 635 635 635 635 635 635 635 635 635 635 635 635 635 635 635 635 635 635 635 635 635 635 635 635 635 635 635 635 14 635 635 635 635 635 635 635 635 635 635 635 635 635 635 635 635 635 635 635 635 635 635 635 635 20 635 635 635 635 635 635 635 11 8 635 635 635 0 635 635 635 635 635
635 635 635 635 635 635 635 635 635 635 635 635 17 635 635 22 635 635 635 635 2 635 635 635 635 635 635 635 635 635 635 635 635 635 635 635 635 635 635 635 635 635 635 635 635 635 635 635 635 635 635 635 4 635 635 635 9 635 635 635 635 635 16 635 635 635 635 635 635 635 635 635 635 635 635 635 635 635 635 635 635 0 635 635 635 635
635 635 635 635 635 635 635 635 635 635 635 635 635 635 16 635 635 22 635 13 635 635 635 635 635 9 635 635 635 635 635 635 13 635 635 635 635 635 635 635 635 635 19 635 635 635 635 635 635 635 635 635 635 635 635 635 635 635 635 635 635 635 635 635 635 635 635 635 635 635 635 635 635 635 635 635 635 635 635 635 635 635 0 635 635 635
635 635 635 635 635 6 635 635 635 13 13 635 635 635 635 15 635 635 635 635 635 635 635 635 635 635 635 635 635 635 635 635 635 11 635 635 635 635 635 635 635 635 635 635 635 635 635 635 635 635 635 635 635 635 635 635 635 635 635 635 635 635 635 635 635 635 635 635 635 635 635 13 635 635 635 635 635 635 5 635 635 635 635 0 635 635
635 635 10 635 635 635 635 635 635 635 6 635 635 635 635 635 635 635 635 635 635 635 635 16 635 635 635 3 635 635 635 635 635 635 635 635 635 635 635 635 635 635 635 635 635 635 635 635 635 635 635 635 635 635 635 635 635 4 635 635 635 635 635 635 635 635 635 635 635 635 635 635 635 635 635 635 15 635 635 635 635 635 635 635 0 635
635 635 635 635 635 635 635 635 635 635 635 635 635 635 635 635 635 635 635 635 635 635 635 635 635 635 635 635 635 635 635 635 635 635 635 635 635 635 635 635 635 635 635 14 635 8 635 6 635 635 635 635 635 635 635 635 635 635 635 635 635 10 635 635 635 10 635 635 635 635 635 635 635 635 635 6 635 635 635 635 635 635 635 635 635 0
EOF
